networks/zoo_80_312/zoo_80_312.txt
Number of groups: 38
Flow 34: {4 5} 
Flow 53: {5 1} {1 35} {35 75} 
Flow 55: {37 38} {38 78} 
Flow 63: {7 8} {8 35} {35 34} {34 74} 
Flow 67: {8 7} {7 5} {5 45} 
Flow 112: {16 30} {30 5} {5 3} {3 37} {37 77} 
Flow 114: {15 13} {13 23} {23 24} {24 6} {6 46} 
Flow 117: {15 14} 
Flow 120: {13 16} {16 10} {10 9} {9 8} 
Flow 129: {6 5} {5 9} {9 49} 
Flow 131: {23 13} {13 53} 
Flow 135: {23 28} {28 68} 
Flow 136: {24 30} {30 29} {29 69} 
Flow 143: {6 4} {4 31} {31 40} {40 80} 
Flow 145: {25 26} {26 8} 
Flow 154: {26 9} {9 5} {5 32} 
Flow 155: {25 35} {35 33} 
Flow 164: {26 10} {10 16} {16 13} {13 14} 
Flow 165: {10 30} {30 24} 
Flow 173: {27 23} {23 63} 
Flow 176: {28 29} {29 30} {30 10} 
Flow 177: {28 23} {23 14} {14 54} 
Flow 193: {24 23} {23 27} {27 67} 
Flow 194: {29 28} 
Flow 212: {30 16} {16 56} 
Flow 218: {31 1} {1 3} {3 32} {32 72} 
Flow 226: {32 5} {5 7} {7 47} 
Flow 237: {32 3} {3 39} {39 40} 
Flow 238: {34 35} {35 8} {8 9} {9 10} {10 50} 
Flow 239: {34 2} {2 1} {1 5} {5 6} 
Flow 257: {35 1} {1 31} 
Flow 258: {36 3} 
Flow 274: {3 33} {33 73} 
Flow 275: {3 1} {1 2} {2 34} 
Flow 281: {38 37} {37 3} {3 5} {5 30} {30 70} 
Flow 295: {39 3} {3 43} 
Flow 304: {40 31} {31 4} {4 6} {6 24} 
Flow 312: {40 39} {39 79} 
Time taken running everything: 5 seconds
