networks/zoo_80_312/zoo_80_312.sol
<?xml version = "1.0" encoding="UTF-8" standalone="yes"?>
<CPLEXSolution version="1.2">
 <header
   problemName="networks/zoo_80_312/zoo_80_312.lp"
   solutionName="incumbent"
   solutionIndex="-1"
   objectiveValue="38"
   solutionTypeValue="3"
   solutionTypeString="primal"
   solutionStatusValue="101"
   solutionStatusString="integer optimal solution"
   solutionMethodString="mip"
   primalFeasible="1"
   dualFeasible="1"
   MIPNodes="0"
   MIPIterations="6898"
   writeLevel="3"/>
 <quality
   epInt="1.0000000000000001e-05"
   epRHS="9.9999999999999995e-07"
   maxIntInfeas="0"
   maxPrimalInfeas="8.8817841970012523e-16"
   maxX="4"
   maxSlack="10"/>
 <variables>
  <variable name="Y(34,4)" index="1785" value="1"/>
  <variable name="Y(53,35)" index="2834" value="1"/>
  <variable name="Y(55,38)" index="2945" value="1"/>
  <variable name="Y(63,34)" index="3373" value="1"/>
  <variable name="Y(67,5)" index="3568" value="1"/>
  <variable name="Y(112,37)" index="6022" value="1"/>
  <variable name="Y(114,6)" index="6107" value="1"/>
  <variable name="Y(117,15)" index="6276" value="1"/>
  <variable name="Y(120,9)" index="6434" value="1"/>
  <variable name="Y(129,9)" index="6920" value="1"/>
  <variable name="Y(131,13)" index="7030" value="1"/>
  <variable name="Y(135,28)" index="7255" value="1"/>
  <variable name="Y(136,29)" index="7310" value="1"/>
  <variable name="Y(143,40)" index="7699" value="1"/>
  <variable name="Y(145,26)" index="7793" value="1"/>
  <variable name="Y(154,5)" index="8266" value="1"/>
  <variable name="Y(155,35)" index="8342" value="1"/>
  <variable name="Y(164,13)" index="8812" value="1"/>
  <variable name="Y(165,30)" index="8877" value="1"/>
  <variable name="Y(173,23)" index="9302" value="1"/>
  <variable name="Y(176,30)" index="9471" value="1"/>
  <variable name="Y(177,14)" index="9515" value="1"/>
  <variable name="Y(193,27)" index="10386" value="1"/>
  <variable name="Y(194,29)" index="10442" value="1"/>
  <variable name="Y(212,16)" index="11407" value="1"/>
  <variable name="Y(218,32)" index="11741" value="1"/>
  <variable name="Y(226,7)" index="12156" value="1"/>
  <variable name="Y(237,39)" index="12774" value="1"/>
  <variable name="Y(238,10)" index="12807" value="1"/>
  <variable name="Y(239,5)" index="12856" value="1"/>
  <variable name="Y(257,1)" index="13824" value="1"/>
  <variable name="Y(258,36)" index="13905" value="1"/>
  <variable name="Y(274,33)" index="14766" value="1"/>
  <variable name="Y(275,2)" index="14797" value="1"/>
  <variable name="Y(281,30)" index="15141" value="1"/>
  <variable name="Y(295,3)" index="15878" value="1"/>
  <variable name="Y(304,6)" index="16367" value="1"/>
  <variable name="Y(312,39)" index="16824" value="1"/>
  <variable name="X(1,2,275)" index="17122" value="1"/>
  <variable name="X(1,3,218)" index="17377" value="1"/>
  <variable name="X(1,5,239)" index="17710" value="1"/>
  <variable name="X(1,31,257)" index="18040" value="1"/>
  <variable name="X(1,35,53)" index="18148" value="1"/>
  <variable name="X(2,1,239)" index="18646" value="1"/>
  <variable name="X(2,34,275)" index="18994" value="1"/>
  <variable name="X(3,1,275)" index="19306" value="1"/>
  <variable name="X(3,5,281)" index="19624" value="1"/>
  <variable name="X(3,32,218)" index="19873" value="1"/>
  <variable name="X(3,33,274)" index="20241" value="1"/>
  <variable name="X(3,37,112)" index="20391" value="1"/>
  <variable name="X(3,39,237)" index="20828" value="1"/>
  <variable name="X(3,43,295)" index="21198" value="1"/>
  <variable name="X(4,5,34)" index="21249" value="1"/>
  <variable name="X(4,6,304)" index="21831" value="1"/>
  <variable name="X(4,31,143)" index="21982" value="1"/>
  <variable name="X(5,1,53)" index="22204" value="1"/>
  <variable name="X(5,3,112)" index="22575" value="1"/>
  <variable name="X(5,6,239)" index="23014" value="1"/>
  <variable name="X(5,7,226)" index="23313" value="1"/>
  <variable name="X(5,9,129)" index="23528" value="1"/>
  <variable name="X(5,30,281)" index="23992" value="1"/>
  <variable name="X(5,32,154)" index="24177" value="1"/>
  <variable name="X(5,45,67)" index="24402" value="1"/>
  <variable name="X(6,4,143)" index="24790" value="1"/>
  <variable name="X(6,5,129)" index="25088" value="1"/>
  <variable name="X(6,24,304)" index="25575" value="1"/>
  <variable name="X(6,46,114)" index="25697" value="1"/>
  <variable name="X(7,5,67)" index="25962" value="1"/>
  <variable name="X(7,8,63)" index="26270" value="1"/>
  <variable name="X(7,47,226)" index="26745" value="1"/>
  <variable name="X(8,7,67)" index="26898" value="1"/>
  <variable name="X(8,9,238)" index="27381" value="1"/>
  <variable name="X(8,35,63)" index="27518" value="1"/>
  <variable name="X(9,5,154)" index="27921" value="1"/>
  <variable name="X(9,8,120)" index="28199" value="1"/>
  <variable name="X(9,10,238)" index="28629" value="1"/>
  <variable name="X(9,49,129)" index="28832" value="1"/>
  <variable name="X(10,9,120)" index="29135" value="1"/>
  <variable name="X(10,16,164)" index="29491" value="1"/>
  <variable name="X(10,30,165)" index="29804" value="1"/>
  <variable name="X(10,50,238)" index="30189" value="1"/>
  <variable name="X(13,14,164)" index="30427" value="1"/>
  <variable name="X(13,16,120)" index="30695" value="1"/>
  <variable name="X(13,23,114)" index="31001" value="1"/>
  <variable name="X(13,53,131)" index="31330" value="1"/>
  <variable name="X(14,54,177)" index="31688" value="1"/>
  <variable name="X(15,13,114)" index="31937" value="1"/>
  <variable name="X(15,14,117)" index="32252" value="1"/>
  <variable name="X(16,10,120)" index="32567" value="1"/>
  <variable name="X(16,13,164)" index="32923" value="1"/>
  <variable name="X(16,30,112)" index="33183" value="1"/>
  <variable name="X(16,56,212)" index="33595" value="1"/>
  <variable name="X(23,13,131)" index="33826" value="1"/>
  <variable name="X(23,14,177)" index="34184" value="1"/>
  <variable name="X(23,24,114)" index="34433" value="1"/>
  <variable name="X(23,27,193)" index="34824" value="1"/>
  <variable name="X(23,28,135)" index="35078" value="1"/>
  <variable name="X(23,63,173)" index="35428" value="1"/>
  <variable name="X(24,6,114)" index="35681" value="1"/>
  <variable name="X(24,23,193)" index="36072" value="1"/>
  <variable name="X(24,30,136)" index="36327" value="1"/>
  <variable name="X(25,26,145)" index="36648" value="1"/>
  <variable name="X(25,35,155)" index="36970" value="1"/>
  <variable name="X(26,8,145)" index="37272" value="1"/>
  <variable name="X(26,9,154)" index="37593" value="1"/>
  <variable name="X(26,10,164)" index="37915" value="1"/>
  <variable name="X(27,23,173)" index="38236" value="1"/>
  <variable name="X(27,67,193)" index="38568" value="1"/>
  <variable name="X(28,23,177)" index="38864" value="1"/>
  <variable name="X(28,29,176)" index="39175" value="1"/>
  <variable name="X(28,68,135)" index="39446" value="1"/>
  <variable name="X(29,28,194)" index="39817" value="1"/>
  <variable name="X(29,30,176)" index="40111" value="1"/>
  <variable name="X(29,69,136)" index="40383" value="1"/>
  <variable name="X(30,5,112)" index="40671" value="1"/>
  <variable name="X(30,10,176)" index="41047" value="1"/>
  <variable name="X(30,16,212)" index="41395" value="1"/>
  <variable name="X(30,24,165)" index="41660" value="1"/>
  <variable name="X(30,29,136)" index="41943" value="1"/>
  <variable name="X(30,70,281)" index="42400" value="1"/>
  <variable name="X(31,1,218)" index="42649" value="1"/>
  <variable name="X(31,4,304)" index="43047" value="1"/>
  <variable name="X(31,40,143)" index="43198" value="1"/>
  <variable name="X(32,3,237)" index="43604" value="1"/>
  <variable name="X(32,5,226)" index="43905" value="1"/>
  <variable name="X(32,72,218)" index="44209" value="1"/>
  <variable name="X(33,73,274)" index="44577" value="1"/>
  <variable name="X(34,2,239)" index="44854" value="1"/>
  <variable name="X(34,35,238)" index="45165" value="1"/>
  <variable name="X(34,74,63)" index="45302" value="1"/>
  <variable name="X(35,1,257)" index="45808" value="1"/>
  <variable name="X(35,8,238)" index="46101" value="1"/>
  <variable name="X(35,33,155)" index="46330" value="1"/>
  <variable name="X(35,34,63)" index="46550" value="1"/>
  <variable name="X(35,75,53)" index="46852" value="1"/>
  <variable name="X(36,3,258)" index="47369" value="1"/>
  <variable name="X(37,3,281)" index="47704" value="1"/>
  <variable name="X(37,38,55)" index="47790" value="1"/>
  <variable name="X(37,77,112)" index="48159" value="1"/>
  <variable name="X(38,37,281)" index="48640" value="1"/>
  <variable name="X(38,78,55)" index="48726" value="1"/>
  <variable name="X(39,3,295)" index="49278" value="1"/>
  <variable name="X(39,40,237)" index="49532" value="1"/>
  <variable name="X(39,79,312)" index="49919" value="1"/>
  <variable name="X(40,31,304)" index="50223" value="1"/>
  <variable name="X(40,39,312)" index="50543" value="1"/>
  <variable name="X(40,80,143)" index="50686" value="1"/>
  <variable name="C(53,1)" index="51038" value="1"/>
  <variable name="C(53,35)" index="51039" value="2"/>
  <variable name="C(55,38)" index="51046" value="1"/>
  <variable name="C(63,8)" index="51076" value="1"/>
  <variable name="C(63,35)" index="51077" value="2"/>
  <variable name="C(63,34)" index="51078" value="3"/>
  <variable name="C(67,7)" index="51092" value="1"/>
  <variable name="C(67,5)" index="51093" value="2"/>
  <variable name="C(112,30)" index="51277" value="1"/>
  <variable name="C(112,5)" index="51278" value="2"/>
  <variable name="C(112,3)" index="51279" value="2.9999999999999996"/>
  <variable name="C(112,37)" index="51280" value="3.9999999999999991"/>
  <variable name="C(114,13)" index="51288" value="1"/>
  <variable name="C(114,23)" index="51289" value="2"/>
  <variable name="C(114,24)" index="51290" value="3"/>
  <variable name="C(114,6)" index="51291" value="4"/>
  <variable name="C(120,16)" index="51313" value="1"/>
  <variable name="C(120,10)" index="51314" value="2"/>
  <variable name="C(120,9)" index="51315" value="3"/>
  <variable name="C(129,5)" index="51353" value="1"/>
  <variable name="C(129,9)" index="51354" value="2"/>
  <variable name="C(131,13)" index="51360" value="1"/>
  <variable name="C(135,28)" index="51371" value="1"/>
  <variable name="C(136,30)" index="51373" value="1"/>
  <variable name="C(136,29)" index="51374" value="2"/>
  <variable name="C(143,4)" index="51404" value="1"/>
  <variable name="C(143,31)" index="51405" value="2"/>
  <variable name="C(143,40)" index="51406" value="3"/>
  <variable name="C(145,26)" index="51413" value="1"/>
  <variable name="C(154,9)" index="51456" value="1"/>
  <variable name="C(154,5)" index="51457" value="2"/>
  <variable name="C(155,35)" index="51460" value="1"/>
  <variable name="C(164,10)" index="51494" value="1"/>
  <variable name="C(164,16)" index="51495" value="2"/>
  <variable name="C(164,13)" index="51496" value="3"/>
  <variable name="C(165,30)" index="51500" value="1"/>
  <variable name="C(173,23)" index="51535" value="1"/>
  <variable name="C(176,29)" index="51546" value="1"/>
  <variable name="C(176,30)" index="51547" value="2"/>
  <variable name="C(177,23)" index="51550" value="1"/>
  <variable name="C(177,14)" index="51551" value="2"/>
  <variable name="C(193,23)" index="51606" value="1"/>
  <variable name="C(193,27)" index="51607" value="2"/>
  <variable name="C(212,16)" index="51685" value="1"/>
  <variable name="C(218,1)" index="51713" value="1"/>
  <variable name="C(218,3)" index="51714" value="2"/>
  <variable name="C(218,32)" index="51715" value="3"/>
  <variable name="C(226,5)" index="51742" value="1"/>
  <variable name="C(226,7)" index="51743" value="2"/>
  <variable name="C(237,3)" index="51788" value="1"/>
  <variable name="C(237,39)" index="51789" value="2"/>
  <variable name="C(238,35)" index="51792" value="1"/>
  <variable name="C(238,8)" index="51793" value="2"/>
  <variable name="C(238,9)" index="51794" value="3"/>
  <variable name="C(238,10)" index="51795" value="4"/>
  <variable name="C(239,2)" index="51797" value="1"/>
  <variable name="C(239,1)" index="51798" value="2"/>
  <variable name="C(239,5)" index="51799" value="3"/>
  <variable name="C(257,1)" index="51878" value="1"/>
  <variable name="C(274,33)" index="51961" value="1"/>
  <variable name="C(275,1)" index="51964" value="1"/>
  <variable name="C(275,2)" index="51965" value="2"/>
  <variable name="C(281,37)" index="51993" value="1"/>
  <variable name="C(281,3)" index="51994" value="2"/>
  <variable name="C(281,5)" index="51995" value="3"/>
  <variable name="C(281,30)" index="51996" value="4"/>
  <variable name="C(295,3)" index="52059" value="1"/>
  <variable name="C(304,31)" index="52105" value="1"/>
  <variable name="C(304,4)" index="52106" value="2"/>
  <variable name="C(304,6)" index="52107" value="3"/>
  <variable name="C(312,39)" index="52147" value="1"/>
 </variables>
</CPLEXSolution>
